problems/csplib-prob024/Langford-models/noch/O2/lingeling/model-langford_2_11-solution000001.eprime-solution
language ESSENCE' 1.0

letting seq_Function1D be [11, 5, 2, 9, 6, 2, 10, 5, 7, 8, 3, 6, 11, 9, 3, 4, 7, 10, 8, 1, 4, 1; int(1..22)]
