problems/csplib-prob024/Langford-models/noch/O2/lingeling/model-langford_2_11-solution000001.solution
language Essence 1.3

letting seq be
        function(1 --> 11, 2 --> 5, 3 --> 2, 4 --> 9, 5 --> 6, 6 --> 2, 7 --> 10, 8 --> 5, 9 --> 7, 10 --> 8, 11 --> 3,
                 12 --> 6, 13 --> 11, 14 --> 9, 15 --> 3, 16 --> 4, 17 --> 7, 18 --> 10, 19 --> 8, 20 --> 1, 21 --> 4,
                 22 --> 1)
